(set-info :source  loris-7.ddns.comp.nus.edu.sg/~project/hip/) 
;Variables declarations
(declare-fun v_bool_121_1352_primed () Int)
(declare-fun v_primed () Int)
(declare-fun v () Int)
(declare-fun x () Int)
(declare-fun xl () Int)
(declare-fun sm_1785 () Int)
(declare-fun xs () Int)
(declare-fun n () Int)
(declare-fun res () Int)
(declare-fun qs_1789 () Int)
(declare-fun lg_1786 () Int)
(declare-fun flted_22_1787 () Int)
(declare-fun x_primed () Int)
(declare-fun q_1788 () Int)
(declare-fun v_node_122_1331_primed () Int)
;Relations declarations
;Axioms assertions
;Antecedent
(assert (> v_bool_121_1352_primed 0))
(assert (<= v_primed sm_1785))
(assert (< 0 n))
(assert (= v_primed v))
(assert (= x_primed x))
(assert (= lg_1786 xl))
(assert (= sm_1785 xs))
(assert (<= xs qs_1789))
(assert (= (+ flted_22_1787 1) n))
(assert (= res v_node_122_1331_primed))
(assert (= x_primed 1))
(assert (or (and (and (= lg_1786 qs_1789) (= flted_22_1787 1)) (> q_1788 0)) (and (and (<= qs_1789 lg_1786) (<= 2 flted_22_1787)) (> q_1788 0))))
(assert (= v_node_122_1331_primed 2))
(assert (not (= x_primed v_node_122_1331_primed)))
(assert (not (= x_primed q_1788)))
(assert (not (= q_1788 v_node_122_1331_primed)))
;Negation of Consequence
(assert (not false))
(check-sat)